
;this file is automatically generated: Tue Feb 23 11:59:58 CST 2021

;declarations generated

(declare-fun oclExcludes ( Int Int) Bool)
(declare-fun oclSelect ( Int Bool) Int)
(declare-fun type_460eb55d_d42c_46f7_b6d3_3cea14d9cf3c_B ( Int) Bool)
(declare-fun Cardinality ( Int) Int)
(declare-fun type_a2459103_c6b9_4c44_bf80_248f0d1d6646_A ( Int) Bool)
(declare-fun container_ ( Int) Int)
(declare-fun type_ecd1e3e6_4fef_4d85_bfcc_1dc13765f78e_C ( Int) Bool)
(declare-fun type_ef74accd_e4d7_4e93_949d_b9f25e1ad622_D ( Int) Bool)
(declare-fun oclIncludes ( Int Int) Bool)
(declare-fun obj_cc5a3cfa_0249_4190_b9ca_f6ffe0df1a4d ( Int) Int)
(declare-fun aux1 () Int)
(declare-fun aux0 () Int)
(declare-fun aux3 () Int)
(declare-fun aux2 () Int)
(declare-fun aux4 () Int)
(declare-fun weight4 () Int)
(declare-fun weight3 () Int)
(declare-fun ObjAt ( Int Int) Int)
(declare-fun weight2 () Int)
(declare-fun weight1 () Int)
(declare-fun weight0 () Int)

;formula(s) generated
(assert (and (>= aux0 0) (<= aux0 1)))
(assert (or (or (forall ((b Int)) (=> (and ( type_460eb55d_d42c_46f7_b6d3_3cea14d9cf3c_B b )  ( type_a2459103_c6b9_4c44_bf80_248f0d1d6646_A b ) ) (forall ((c Int)) (=> (and ( type_ecd1e3e6_4fef_4d85_bfcc_1dc13765f78e_C c )  ( type_a2459103_c6b9_4c44_bf80_248f0d1d6646_A c ) ) (not (= ( obj_cc5a3cfa_0249_4190_b9ca_f6ffe0df1a4d b )  ( obj_cc5a3cfa_0249_4190_b9ca_f6ffe0df1a4d c ) ) ))))) (and (= aux0 1) true)) (and (= aux0 0) false)))
(assert (and (=> (= aux0 0) (= weight0 1)) (=> (= aux0 1) (= weight0 0))))
(assert (and (>= aux1 0) (<= aux1 1)))
(assert (and (>= aux2 0) (<= aux2 1)))
(assert (and (>= aux3 0) (<= aux3 1)))
(assert (and (>= aux4 0) (<= aux4 1)))
(assert (or (or (exists ((p Int)) ( type_a2459103_c6b9_4c44_bf80_248f0d1d6646_A ( obj_cc5a3cfa_0249_4190_b9ca_f6ffe0df1a4d p )  ) ) (and (= aux1 1) true)) (and (= aux1 0) false)))
(assert (and (=> (= aux1 0) (= weight1 1)) (=> (= aux1 1) (= weight1 0))))
(assert (or (or (exists ((p Int)) (and ( type_460eb55d_d42c_46f7_b6d3_3cea14d9cf3c_B ( obj_cc5a3cfa_0249_4190_b9ca_f6ffe0df1a4d p )  )  ( type_a2459103_c6b9_4c44_bf80_248f0d1d6646_A ( obj_cc5a3cfa_0249_4190_b9ca_f6ffe0df1a4d p )  ) )) (and (= aux2 1) true)) (and (= aux2 0) false)))
(assert (and (=> (= aux2 0) (= weight2 1)) (=> (= aux2 1) (= weight2 0))))
(assert (or (or (exists ((p Int)) (and ( type_ecd1e3e6_4fef_4d85_bfcc_1dc13765f78e_C ( obj_cc5a3cfa_0249_4190_b9ca_f6ffe0df1a4d p )  )  ( type_a2459103_c6b9_4c44_bf80_248f0d1d6646_A ( obj_cc5a3cfa_0249_4190_b9ca_f6ffe0df1a4d p )  ) )) (and (= aux3 1) true)) (and (= aux3 0) false)))
(assert (and (=> (= aux3 0) (= weight3 1)) (=> (= aux3 1) (= weight3 0))))
(assert (or (or (exists ((p Int)) (and (and (and ( type_ef74accd_e4d7_4e93_949d_b9f25e1ad622_D ( obj_cc5a3cfa_0249_4190_b9ca_f6ffe0df1a4d p )  )  ( type_a2459103_c6b9_4c44_bf80_248f0d1d6646_A ( obj_cc5a3cfa_0249_4190_b9ca_f6ffe0df1a4d p )  ) ) ( type_460eb55d_d42c_46f7_b6d3_3cea14d9cf3c_B ( obj_cc5a3cfa_0249_4190_b9ca_f6ffe0df1a4d p )  ) ) ( type_ecd1e3e6_4fef_4d85_bfcc_1dc13765f78e_C ( obj_cc5a3cfa_0249_4190_b9ca_f6ffe0df1a4d p )  ) )) (and (= aux4 1) true)) (and (= aux4 0) false)))
(assert (and (=> (= aux4 0) (= weight4 1)) (=> (= aux4 1) (= weight4 0))))
(assert (= (+ (+ (+ (+ weight0 weight1) weight2) weight3) weight4) 4))

(assert (not (and (and (and (and (= weight0 1) (= weight1 1)) (= weight2 1)) (= weight3 1)) (= weight4 0)) ))

(assert (not (and (and (and (and (= weight0 0) (= weight1 1)) (= weight2 1)) (= weight3 1)) (= weight4 1)) ))
